Route #1: 4 45 29 48 30
Route #2: 2 33 1 63 16 6
Route #3: 51 49 24 18 55 25 50 44 3
Route #4: 23 56 41 43 42 64 22
Route #5: 62 28 61 21 47 5
Route #6: 36 60 20 37 15 57 52 34
Route #7: 27 13 54 19 35 8 46
Route #8: 14 59 11 53 7
Route #9: 26 58 38 10 31 12
Route #10: 39 9 32 40 17
Cost 821